
Gurobi 11.0.3 (linux64) logging started Fri Nov 22 21:25:21 2024

Set parameter LogFile to value "/home/yihong/Coding/OR_SUC/SUC_results_bigM100000_thread4/case24_ieee_rts_theta0.1_epsilon0.025_gurobi_seed630000_num_gen100_N_WDR100_load_scaling_factor1_exact_T16quadra_cost.txt"
Set parameter TimeLimit to value 3600
Gurobi Optimizer version 11.0.3 build v11.0.3rc0 (linux64 - "Ubuntu 20.04.6 LTS")

CPU model: AMD EPYC 7532 32-Core Processor, instruction set [SSE2|AVX|AVX2]
Thread count: 64 physical cores, 128 logical processors, using up to 4 threads

Optimize a model with 34563 rows, 20041 columns and 474826 nonzeros
Model fingerprint: 0x5af81942
Model has 1600 quadratic constraints
Variable types: 18341 continuous, 1700 integer (1700 binary)
Coefficient statistics:
  Matrix range     [3e-04, 1e+05]
  QMatrix range    [2e-03, 8e-03]
  QLMatrix range   [4e-01, 6e+01]
  Objective range  [1e+00, 1e+00]
  Bounds range     [1e+00, 1e+00]
  RHS range        [1e+00, 1e+05]
Presolve removed 28090 rows and 8764 columns
Presolve time: 0.15s
Presolved: 6473 rows, 11277 columns, 38966 nonzeros
Presolved model has 1600 quadratic constraint(s)
Variable types: 9622 continuous, 1655 integer (1655 binary)

Root relaxation: objective 2.347851e+04, 5326 iterations, 0.11 seconds (0.16 work units)

    Nodes    |    Current Node    |     Objective Bounds      |     Work
 Expl Unexpl |  Obj  Depth IntInf | Incumbent    BestBd   Gap | It/Node Time

     0     0 23478.5111    0   19          - 23478.5111      -     -    0s
     0     0 151602.919    0  552          - 151602.919      -     -    0s
     0     0 336693.302    0  508          - 336693.302      -     -    0s
     0     0 336718.372    0  420          - 336718.372      -     -    0s
     0     0 337507.304    0  341          - 337507.304      -     -    0s
     0     0 337607.488    0  339          - 337607.488      -     -    1s
     0     0 337608.494    0  339          - 337608.494      -     -    1s
     0     2 337608.895    0  339          - 337608.895      -     -    1s
H  509   293                    337958.59934 337619.440  0.10%  11.1    2s
*  509   293             155    337958.59934 337619.440  0.10%  11.1    2s

Cutting planes:
  Gomory: 2
  Implied bound: 370
  MIR: 65
  Flow cover: 126
  RLT: 16
  PSD: 10

Explored 557 nodes (21896 simplex iterations) in 2.91 seconds (3.47 work units)
Thread count was 4 (of 128 available processors)

Solution count 2: 337959 337959 

Optimal solution found (tolerance 1.00e-03)
Warning: max constraint violation (2.9097e-07) exceeds tolerance
Best objective 3.379585993473e+05, best bound 3.376288588167e+05, gap 0.0976%
